Minimize
  obj: x0 + x1 + x2 + x3 + x4 + x5

Subject To
  c0: x0 + x1 + x2 + x3 + x4 = 38
  c1: x0 + x1 + x3 = 28
  c2: x0 + x1 + x2 = 21
  c3: x1 + x2 + x3 + x4 + x5 = 33
  c4: x1 + x2 + x3 = 23
  c5: x0 + x1 + x4 + x5 = 28
  c6: x0 + x3 + x4 = 25
  c7: x0 + x2 + x4 = 18

Bounds
  x0 >= 0
  x1 >= 0
  x2 >= 0
  x3 >= 0
  x4 >= 0
  x5 >= 0

Generals
  x0 x1 x2 x3 x4 x5

End
